[runlim] version:		2.0.0rc12
[runlim] host:			ap-Precision-7550
[runlim] time limit:		311040000 seconds
[runlim] real time limit:	600 seconds
[runlim] space limit:		14000 MB
[runlim] argv[0]:		python3
[runlim] argv[1]:		-u
[runlim] argv[2]:		mip.py
[runlim] argv[3]:		graph10
[runlim] start:			Thu Mar 26 06:15:20 2026
[runlim] child:			32757
--- Building MIP model for 680 variables ---
--- Solving with CPLEX MIP ---
Version identifier: 22.1.1.0 | 2022-11-28 | 9160aff4d
CPXPARAM_Read_DataCheck                          1
CPXPARAM_MIP_Tolerances_MIPGap                   0
Legacy callback                                  i
Tried aggregator 1 time.
[runlim] sample:		13.23 time, 10.01 real, 833 MB, 2.05 load
Presolve has eliminated 1672351 rows and 0 columns...
MIP Presolve eliminated 1672351 rows and 0 columns.
MIP Presolve modified 94255 coefficients.
Reduced MIP has 108316 rows, 26638 columns, and 1875380 nonzeros.
Reduced MIP has 26638 binaries, 0 generals, 0 SOSs, and 0 indicators.
Presolve time = 11.46 sec. (15631.52 ticks)
[runlim] sample:		33.08 time, 20.01 real, 651 MB, 1.96 load
Probing fixed 76 vars, tightened 0 bounds.
Probing changed sense of 13287 constraints.
Probing time = 0.28 sec. (107.05 ticks)
Tried aggregator 1 time.
MIP Presolve eliminated 20205 rows and 13335 columns.
MIP Presolve modified 21300 coefficients.
Reduced MIP has 88082 rows, 13303 columns, and 1939020 nonzeros.
Reduced MIP has 13303 binaries, 0 generals, 0 SOSs, and 0 indicators.
Presolve time = 5.32 sec. (9110.74 ticks)
Probing time = 0.03 sec. (6.74 ticks)
Tried aggregator 1 time.
Detecting symmetries...
Reduced MIP has 88082 rows, 13303 columns, and 1939020 nonzeros.
Reduced MIP has 13303 binaries, 0 generals, 0 SOSs, and 0 indicators.
Presolve time = 1.91 sec. (2559.85 ticks)
Probing time = 0.03 sec. (6.77 ticks)
Clique table members: 88604.
MIP emphasis: balance optimality and feasibility.
MIP search method: dynamic search.
Parallel mode: deterministic, using up to 12 threads.
[runlim] sample:		55.60 time, 30.01 real, 960 MB, 2.12 load
[runlim] sample:		145.29 time, 40.02 real, 1254 MB, 3.64 load
[runlim] sample:		211.97 time, 50.01 real, 1314 MB, 3.92 load
[runlim] sample:		261.96 time, 60.01 real, 1316 MB, 4.09 load
[runlim] sample:		311.94 time, 70.01 real, 1316 MB, 4.23 load
[runlim] sample:		361.92 time, 80.01 real, 1316 MB, 4.35 load
[runlim] sample:		396.52 time, 90.01 real, 1316 MB, 4.14 load
Root relaxation solution time = 63.55 sec. (20907.52 ticks)

        Nodes                                         Cuts/
   Node  Left     Objective  IInf  Best Integer    Best Bound    ItCnt     Gap

      0     0       14.0000  2833                     14.0000       16         
[runlim] sample:		426.37 time, 100.01 real, 1331 MB, 3.96 load
[runlim] sample:		456.35 time, 110.01 real, 1411 MB, 3.82 load
[runlim] sample:		486.34 time, 120.01 real, 1527 MB, 3.69 load
[runlim] sample:		516.34 time, 130.01 real, 1584 MB, 3.58 load
[runlim] sample:		546.33 time, 140.01 real, 1585 MB, 3.49 load
[runlim] sample:		576.33 time, 150.01 real, 1586 MB, 3.42 load
[runlim] sample:		606.32 time, 160.01 real, 1619 MB, 3.35 load
[runlim] sample:		636.31 time, 170.01 real, 1620 MB, 3.30 load
[runlim] sample:		666.30 time, 180.01 real, 1598 MB, 3.41 load
[runlim] sample:		696.29 time, 190.01 real, 1695 MB, 3.34 load
[runlim] sample:		726.29 time, 200.01 real, 1696 MB, 3.29 load
[runlim] sample:		756.28 time, 210.01 real, 1696 MB, 3.25 load
[runlim] sample:		786.26 time, 220.01 real, 1697 MB, 3.21 load
[runlim] sample:		816.25 time, 230.01 real, 1697 MB, 3.17 load
[runlim] sample:		846.24 time, 240.01 real, 1697 MB, 3.15 load
[runlim] sample:		876.23 time, 250.01 real, 1698 MB, 3.12 load
[runlim] sample:		906.22 time, 260.01 real, 1698 MB, 3.10 load
[runlim] sample:		936.20 time, 270.01 real, 1698 MB, 3.09 load
[runlim] sample:		966.19 time, 280.01 real, 1698 MB, 3.07 load
[runlim] sample:		996.18 time, 290.01 real, 1702 MB, 3.06 load
[runlim] sample:		1026.18 time, 300.01 real, 1702 MB, 3.05 load
[runlim] sample:		1056.17 time, 310.01 real, 1702 MB, 3.04 load
[runlim] sample:		1086.17 time, 320.01 real, 1703 MB, 3.04 load
[runlim] sample:		1116.15 time, 330.01 real, 1703 MB, 3.03 load
[runlim] sample:		1146.14 time, 340.01 real, 1763 MB, 3.02 load
[runlim] sample:		1176.13 time, 350.01 real, 1765 MB, 3.02 load
[runlim] sample:		1206.12 time, 360.01 real, 1766 MB, 3.02 load
[runlim] sample:		1236.11 time, 370.01 real, 1766 MB, 3.01 load
[runlim] sample:		1266.10 time, 380.01 real, 1774 MB, 3.01 load
[runlim] sample:		1296.09 time, 390.01 real, 1821 MB, 3.01 load
[runlim] sample:		1326.08 time, 400.01 real, 1821 MB, 3.01 load
[runlim] sample:		1356.07 time, 410.01 real, 1821 MB, 3.01 load
[runlim] sample:		1386.05 time, 420.01 real, 1822 MB, 3.00 load
[runlim] sample:		1416.05 time, 430.01 real, 1826 MB, 3.00 load
[runlim] sample:		1446.03 time, 440.01 real, 1826 MB, 3.00 load
[runlim] sample:		1476.03 time, 450.01 real, 1826 MB, 3.00 load
[runlim] sample:		1506.01 time, 460.01 real, 1826 MB, 3.00 load
[runlim] sample:		1536.01 time, 470.01 real, 1826 MB, 3.00 load
[runlim] sample:		1566.00 time, 480.01 real, 1826 MB, 3.00 load
[runlim] sample:		1595.98 time, 490.01 real, 1826 MB, 3.00 load
[runlim] sample:		1625.97 time, 500.01 real, 1826 MB, 3.00 load
[runlim] sample:		1655.96 time, 510.01 real, 1826 MB, 3.00 load
[runlim] sample:		1685.96 time, 520.01 real, 1826 MB, 3.00 load
[runlim] sample:		1715.94 time, 530.01 real, 1826 MB, 3.00 load
[runlim] sample:		1745.93 time, 540.01 real, 1845 MB, 3.00 load
[runlim] sample:		1775.93 time, 550.01 real, 1887 MB, 3.00 load
[runlim] sample:		1805.92 time, 560.01 real, 1887 MB, 3.00 load
[runlim] sample:		1835.91 time, 570.01 real, 1887 MB, 3.00 load
[runlim] sample:		1865.90 time, 580.01 real, 1887 MB, 3.00 load
[runlim] sample:		1895.89 time, 590.01 real, 1898 MB, 3.00 load
[runlim] sample:		1925.89 time, 600.01 real, 1902 MB, 3.00 load
[runlim] end:			Thu Mar 26 06:25:21 2026
[runlim] status:		out of time
[runlim] result:		2
[runlim] children:		1
[runlim] processes:		2
[runlim] real:			601.06 seconds
[runlim] time:			1925.89 seconds
[runlim] space:			1902 MB
[runlim] load:			4.35 maximum
[runlim] samples:		6000
